23
2 31 40 
3 37 39 20 
2 49 4 
3 26 53 58 
3 24 11 7 
3 60 25 50 
2 18 55 
3 30 16 5 
3 13 2 32 
2 43 47 
3 42 46 12 
3 54 48 57 
3 3 35 21 
3 52 14 51 
1 36 
3 28 23 38 
3 6 17 33 
3 1 44 59 
3 45 8 56 
2 22 10 
1 41 
3 19 15 29 
3 27 9 34 
